Gurobi 12.0.1:   lim:time = 500
  mip:bestbound = 1
Set parameter LogToConsole to value 1
  tech:outlev = 1
Set parameter InfUnbdInfo to value 1
Gurobi Optimizer version 12.0.1 build v12.0.1rc0 (win64 - Windows 11.0 (26100.2))

CPU model: Intel(R) Core(TM) i7-10700 CPU @ 2.90GHz, instruction set [SSE2|AVX|AVX2]
Thread count: 8 physical cores, 16 logical processors, using up to 16 threads

Non-default parameters:
TimeLimit  500
InfUnbdInfo  1

Optimize a model with 318 rows, 547 columns and 2790 nonzeros
Model fingerprint: 0x690adff0
Model has 3 quadratic constraints
Variable types: 25 continuous, 522 integer (0 binary)
Coefficient statistics:
  Matrix range     [1e+00, 1e+05]
  QMatrix range    [1e+00, 1e+00]
  QLMatrix range   [2e+00, 2e+01]
  Objective range  [2e+01, 3e+02]
  Bounds range     [1e+00, 8e+01]
  RHS range        [1e+00, 1e+05]
  QRHS range       [1e+02, 1e+02]
Presolve removed 30 rows and 40 columns
Presolve time: 0.02s
Presolved: 588 rows, 705 columns, 3834 nonzeros
Variable types: 15 continuous, 690 integer (690 binary)

Root relaxation: objective 5.186386e+02, 54 iterations, 0.00 seconds (0.00 work units)

    Nodes    |    Current Node    |     Objective Bounds      |     Work
 Expl Unexpl |  Obj  Depth IntInf | Incumbent    BestBd   Gap | It/Node Time

     0     0  518.63862    0   28          -  518.63862      -     -    0s
H    0     0                    1108.5000000  518.63862  53.2%     -    0s
     0     0  624.69000    0   22 1108.50000  624.69000  43.6%     -    0s
     0     0  625.02000    0   23 1108.50000  625.02000  43.6%     -    0s
     0     0  656.98500    0   23 1108.50000  656.98500  40.7%     -    0s
     0     0  656.98500    0   14 1108.50000  656.98500  40.7%     -    0s
     0     2  656.98500    0   14 1108.50000  656.98500  40.7%     -    0s
*  126   123              18    1070.0100000  678.39115  36.6%   9.4    0s
*  316   217              22    1062.1200000  678.44887  36.1%   6.7    0s
*  713   473              48    1060.7400000  679.17960  36.0%   6.3    0s
*  816   473              47    1039.7400000  680.55232  34.5%   6.3    0s
H 1550   682                     977.3400000  696.60920  28.7%   6.4    0s

Cutting planes:
  Learned: 9
  Gomory: 31
  Cover: 51
  Implied bound: 38
  Projected implied bound: 1
  Clique: 1
  MIR: 5
  Flow cover: 16
  GUB cover: 2
  Inf proof: 36
  Zero half: 8
  RLT: 41

Explored 39874 nodes (324760 simplex iterations) in 2.95 seconds (2.95 work units)
Thread count was 16 (of 16 available processors)

Solution count 7: 977.34 977.34 1039.74 ... 1108.5

Optimal solution found (tolerance 1.00e-04)
Best objective 9.773400000000e+02, best bound 9.773400000000e+02, gap 0.0000%

AMPL MP initial flat model has 547 variables (0 integer, 522 binary);
Objectives: 1 linear; 
Constraints:  318 linear; 3 quadratic;

AMPL MP final model has 547 variables (0 integer, 522 binary);
Objectives: 1 linear; 
Constraints:  318 linear; 3 quadratic;


-----RESULTS INFO-----
running_time:  3.016
TC.best_bound:  977.3399999999999
TC:  977.3399999999999
MIP Gap (%):  0
=== Vehicle Routes ===
Vehicle 1: 0 → 13
Vehicle 1: 1 → 9
Vehicle 1: 2 → 11
Vehicle 1: 9 → 18
Vehicle 1: 11 → 1
Vehicle 1: 13 → 2
Vehicle 1: 16 → 19
Vehicle 1: 18 → 16
Vehicle 2: 0 → 19
Vehicle 3: 0 → 3
Vehicle 3: 3 → 14
Vehicle 3: 14 → 19

=== Full Vehicle Routes ===
Vehicle 1: 0 → 13 → 2 → 11 → 1 → 9 → 18 → 16 → 0 (95<100)
Vehicle 2: 0 → 0 (0<100)
Vehicle 3: 0 → 3 → 14 → 0 (26<100)
Arc used by MRT line: y variables:
Customer assigment to PL: u variables:
4 16
5 14
6 13
7 11
8 18
Node is served by regular vehicle: g variables:
1
2
3
9
16
18
11
13
14
Customer assigment to Home delivery: gm variables:
1
2
3
9
Node total demands: ntd variables:
1 8 1
2 2 1
3 8 1
7 0 0
8 0 0
9 6 1
16 20 1
17 0 0
18 16 1
10 0 0
11 19 1
12 0 0
13 24 1
14 18 1
15 0 0
Customer's demand delivered to PL: l variables:
4
5
6
7
8
